32	0

0	1	2
2	1	3
6	1	4
8	1	5
2	1	6
2	1	7
8	1	8
4	1	9
5	1	10
6	1	11
9	1	12
6	2	13	14
10	1	15
1	1	15
7	1	16
3	2	17	18
5	2	19	20
1	2	19	20
3	1	21
10	1	22
5	1	22
5	1	23
8	1	24
4	1	25
5	1	26
7	1	27
9	2	28	30
2	1	29
10	1	31
8	1	31
8	1	32
0	0
